c Read 6384 clauses.  2394 variables
c Breaking ties randomly with seed 1
c Placed 6384 terms into 1108 buckets.
c Bucket 55 Reduced to term with 7 nodes
c Bucket 110 Reduced to term with 7 nodes
c Bucket 165 Reduced to term with 7 nodes
c Bucket 220 Reduced to term with 7 nodes
c Bucket 275 Reduced to term with 7 nodes
c Bucket 330 Reduced to term with 7 nodes
c Bucket 385 Reduced to term with 13 nodes
c Bucket 440 Reduced to term with 15 nodes
c Bucket 495 Reduced to term with 7 nodes
c Bucket 550 Reduced to term with 7 nodes
c Bucket 605 Reduced to term with 7 nodes
c Bucket 660 Reduced to term with 19 nodes
c Bucket 715 Reduced to term with 15 nodes
c Bucket 770 Reduced to term with 27 nodes
c Bucket 825 Reduced to term with 9 nodes
c Bucket 880 Reduced to term with 17 nodes
c Bucket 935 Reduced to term with 9 nodes
c Bucket 990 Reduced to term with 13 nodes
c Bucket 1045 Reduced to term with 23 nodes
c Bucket 1100 Reduced to term with 39 nodes
c Bucket 1155 Reduced to term with 21 nodes
c Bucket 1210 Reduced to term with 33 nodes
c Bucket 1265 Reduced to term with 731 nodes
c Garbage collection #1: 2000003 nodes / 1933123 free / 45145 previously freed  / 0.0s / 0.0s total
c Bucket 1320 Reduced to term with 939 nodes
c Garbage collection #2: 2000003 nodes / 1855347 free / 36623 previously freed  / 0.0s / 0.0s total
c Bucket 1375 Reduced to term with 975 nodes
c Bucket 1430 Reduced to term with 941 nodes
c Garbage collection #3: 2000003 nodes / 1792292 free / 34874 previously freed  / 0.0s / 0.1s total
c Garbage collection #4: 2000003 nodes / 1726888 free / 33338 previously freed  / 0.0s / 0.1s total
c Bucket 1650 Reduced to term with 9 nodes
c Bucket 1815 Reduced to term with 11 nodes
c Bucket 1870 Reduced to term with 163 nodes
s UNSATISFIABLE

c Cache statistics
c ----------------
c Unique Access:  627096
c Unique Chain:   43519
c Unique Hit:     129423
c Unique Miss:    494798
c => Hit rate =   0.21
c Operator Hits:  852840
c Operator Miss:  900448
c => Hit rate =   0.49
c Swap count =    0

c BDD statistics
c ----------------
c Total BDD nodes produced: 494798
c Input variables: 2394
c Input clauses: 6384
c Total clauses: 3240890
c Unused+non-BDD clause IDs: 30299 (0.9%)
c Maximum live clauses: 1444993
c Deleted clauses: 3234506
c Final live clauses: 6384
c Total variables: 497190
c Elapsed seconds: 4.415
-rw-r--r--  1 bryant  staff  177957175 Mar 10 23:08 chew-800-123456.lrat
c parsed a formula with 2394 variables and 6384 clauses
c VERIFIED
c allocated 1024 8386489 121195
c Added clauses = 3240890.  Deleted clauses = 1795897.  Max live clauses = 1444993
c verification time = 2.02 secs
